750
500
400
400
400
399
398
398
397
396
396
395
395
395
394
394
394
394
393
391
391
391
390
389
389
389
389
389
388
388
387
387
387
387
386
386
386
386
386
385
384
383
383
382
382
382
382
382
381
381
380
380
379
379
378
378
378
377
376
376
373
373
373
372
372
372
371
371
370
370
370
370
369
368
368
368
368
368
368
367
366
366
365
365
365
364
364
364
364
362
362
362
361
360
360
360
360
360
359
359
358
358
358
357
356
356
356
356
356
356
355
355
353
352
352
350
349
349
349
348
348
347
347
347
347
346
345
344
344
344
343
343
343
343
342
342
342
341
341
340
338
338
337
337
336
336
335
335
334
334
334
333
333
333
333
332
332
332
330
330
328
328
328
328
327
327
326
326
325
325
325
325
324
324
324
324
323
323
322
322
321
321
320
320
319
319
318
318
318
318
318
316
316
316
315
315
314
314
314
313
313
313
313
312
312
312
312
312
312
310
309
309
306
306
306
306
306
305
305
304
304
302
302
301
301
301
301
301
300
300
300
299
299
298
298
298
298
297
297
296
296
296
296
295
294
293
293
292
292
292
292
290
290
289
288
286
286
285
285
285
285
284
284
284
283
283
283
283
283
282
282
281
281
280
280
280
280
280
279
278
278
278
277
277
277
276
276
275
275
275
273
272
272
271
271
270
270
270
269
269
269
269
269
269
269
268
268
268
268
267
267
267
267
266
266
266
266
266
266
266
265
265
265
265
264
264
264
263
260
260
260
260
260
259
258
258
255
255
255
255
255
253
252
251
251
251
251
250
249
249
248
248
248
247
246
246
245
245
245
245
245
244
244
244
244
244
243
242
242
242
242
240
240
240
240
239
239
239
239
239
238
238
238
238
237
237
236
236
236
234
234
233
233
232
231
231
230
230
229
228
228
228
227
227
226
225
225
224
224
223
223
223
222
220
220
219
219
218
218
217
217
216
215
215
214
213
213
212
212
212
211
211
211
210
209
208
207
207
207
205
205
205
204
203
203
203
201
201
200
199
199
197
197
196
196
196
195
195
194
194
194
193
192
191
191
191
190
190
190
189
189
189
187
187
187
186
186
186
186
185
185
185
185
184
184
181
181
181
181
180
179
178
178
178
178
177
175
175
174
173
173
172
172
171
171
171
170
170
170
169
169
169
169
168
168
168
167
166
165
165
164
164
164
163
163
163
163
162
162
161
160
160
160
160
159
159
159
159
158
158
157
157
156
156
155
153
151
151
150
150
150
149
149
149
147
147
147
147
146
144
143
142
142
141
140
140
140
140
140
139
139
139
138
138
137
137
136
135
134
134
134
133
133
133
133
131
131
130
130
129
129
128
127
126
126
125
123
122
121
121
121
120
120
120
120
120
119
118
117
116
116
116
116
115
115
115
115
114
114
113
113
113
112
112
112
111
111
111
111
111
109
109
108
105
105
105
104
104
103
103
102
102
102
102
102
101
99
99
99
99
98
98
98
98
98
97
96
95
94
93
91
91
91
91
91
91
90
90
88
88
87
86
86
85
85
85
85
84
84
83
83
83
83
83
82
82
82
81
81
80
79
79
78
77
77
77
76
76
75
75
74
74
73
73
73
72
72
72
71
69
69
68
67
66
66
66
66
65
65
64
64
64
64
63
63
63
62
61
61
60
59
59
58
57
57
56
56
55
55
54
54
54
54
53
53
53
52
52
52
52
51
50
